NAME : portcgen-10-30
COMMENT : portcgen N=10, seed=30
TYPE : TSP
DIMENSION : 10
EDGE_WEIGHT_TYPE : EUC_2D
NODE_COORD_SECTION
1 118 63
2 58 94
3 63 82
4 116 120
5 80 112
6 97 93
7 69 109
8 96 101
9 93 81
10 87 57
